tsp_instances/TSP50/instance66.tsp
NODE_COORD_SECTION
0 56 104
1 71 170
2 88 189
3 2 59
4 171 88
5 186 18
6 63 108
7 64 197
8 139 83
9 113 109
10 163 101
11 70 143
12 77 113
13 144 19
14 149 64
15 120 19
16 164 19
17 31 95
18 177 27
19 180 22
20 1 103
21 100 40
22 170 126
23 8 119
24 124 9
25 136 138
26 71 125
27 114 106
28 106 8
29 167 102
30 38 69
31 175 20
32 2 76
33 189 49
34 156 67
35 49 25
36 60 3
37 22 68
38 181 191
39 73 87
40 4 192
41 119 112
42 67 19
43 64 12
44 46 105
45 91 3
46 114 150
47 89 188
48 102 115
49 193 121
