tsp_instances/TSP50/instance66.opt.tour
TOUR_SECTION
1
7
40
22
43
36
44
37
46
29
16
25
14
17
32
6
20
19
34
35
15
9
5
11
30
23
50
39
26
47
42
28
10
49
13
27
12
2
48
3
8
41
24
21
33
4
38
31
18
45
-1